words_hard_train/4564.qaiger
aag 114 22 0 1 92
2
4
8
12
16
20
28
30
40
42
62
68
80
82
96
98
130
132
154
188
204
206
228
6 2 4
10 6 8
14 11 13
18 15 16
22 19 21
24 18 20
26 23 25
32 28 31
34 29 30
36 33 35
38 26 36
44 40 43
46 41 42
48 45 47
50 14 17
52 51 19
54 48 53
56 39 55
58 7 9
60 59 11
64 63 5
66 65 7
70 69 3
72 62 4
74 70 73
76 66 75
78 60 76
84 80 82
86 81 83
88 85 87
90 79 89
92 61 77
94 91 93
100 96 99
102 97 98
104 101 103
106 11 12
108 10 13
110 107 109
112 105 110
114 95 113
116 104 111
118 115 117
120 49 52
122 119 121
124 56 123
126 27 37
128 125 127
134 130 132
136 131 133
138 135 137
140 5 17
142 140 9
144 3 13
146 142 144
148 147 21
150 12 16
152 148 151
156 152 155
158 146 21
160 159 154
162 158 155
164 161 163
166 153 165
168 157 167
170 108 16
172 170 21
174 169 173
176 168 172
178 175 177
180 139 179
182 129 181
184 138 178
186 183 185
190 162 189
192 163 188
194 191 193
196 195 166
198 194 167
200 197 199
202 186 201
208 204 207
210 205 206
212 209 211
214 212 176
216 202 215
218 187 200
220 214 218
222 217 221
224 219 213
226 224 177
228 222 227
i0 1 x2[0]
i1 1 x2[1]
i2 1 x2[2]
i3 1 x2[3]
i4 1 x2[4]
i5 1 x2[5]
i6 2 y2[5]
i7 2 y1[3]
i8 2 y2[4]
i9 2 y1[2]
i10 2 y2[1]
i11 2 y2[0]
i12 2 y2[2]
i13 2 y1[0]
i14 2 y2[3]
i15 2 y1[1]
i16 2 y2[6]
i17 2 y1[4]
i18 1 x2[6]
i19 1 x2[7]
i20 2 y2[7]
i21 2 y1[5]
o0 bv[0]
c
simplified
  >=
    xor
      << 2
        2 y1
      2 y2
    subtract
      87
      1 x2
