words_hard_train/4564.qaiger.qdimacs
p cnf 114 277
a 1 2 4 6 8 10 77 94 0
e 3 5 7 9 11 12 13 14 15 16 17 18 19 20 21 22 23 24 25 26 27 28 29 30 31 32 33 34 35 36 37 38 39 40 41 42 43 44 45 46 47 48 49 50 51 52 53 54 55 56 57 58 59 60 61 62 63 64 65 66 67 68 69 70 71 72 73 74 75 76 78 79 80 81 82 83 84 85 86 87 88 89 90 91 92 93 95 96 97 98 99 100 101 102 103 104 105 106 107 108 109 110 111 112 113 114 0
-1 -2 3 0
1 -3 0
2 -3 0
-3 -4 5 0
3 -5 0
4 -5 0
5 6 7 0
-5 -7 0
-6 -7 0
7 -8 9 0
-7 -9 0
8 -9 0
9 10 11 0
-9 -11 0
-10 -11 0
-9 -10 12 0
9 -12 0
10 -12 0
11 12 13 0
-11 -13 0
-12 -13 0
-14 15 16 0
14 -16 0
-15 -16 0
14 -15 17 0
-14 -17 0
15 -17 0
16 17 18 0
-16 -18 0
-17 -18 0
-13 -18 19 0
13 -19 0
18 -19 0
-20 21 22 0
20 -22 0
-21 -22 0
20 -21 23 0
-20 -23 0
21 -23 0
22 23 24 0
-22 -24 0
-23 -24 0
-7 8 25 0
7 -25 0
-8 -25 0
25 9 26 0
-25 -26 0
-9 -26 0
-24 26 27 0
24 -27 0
-26 -27 0
19 27 28 0
-19 -28 0
-27 -28 0
3 4 29 0
-3 -29 0
-4 -29 0
29 5 30 0
-29 -30 0
-5 -30 0
31 2 32 0
-31 -32 0
-2 -32 0
32 3 33 0
-32 -33 0
-3 -33 0
34 1 35 0
-34 -35 0
-1 -35 0
-31 -2 36 0
31 -36 0
2 -36 0
-35 36 37 0
35 -37 0
-36 -37 0
-33 37 38 0
33 -38 0
-37 -38 0
-30 -38 39 0
30 -39 0
38 -39 0
-40 -41 42 0
40 -42 0
41 -42 0
40 41 43 0
-40 -43 0
-41 -43 0
42 43 44 0
-42 -44 0
-43 -44 0
39 44 45 0
-39 -45 0
-44 -45 0
30 38 46 0
-30 -46 0
-38 -46 0
45 46 47 0
-45 -47 0
-46 -47 0
-48 49 50 0
48 -50 0
-49 -50 0
48 -49 51 0
-48 -51 0
49 -51 0
50 51 52 0
-50 -52 0
-51 -52 0
5 -6 53 0
-5 -53 0
6 -53 0
-5 6 54 0
5 -54 0
-6 -54 0
53 54 55 0
-53 -55 0
-54 -55 0
52 -55 56 0
-52 -56 0
55 -56 0
47 56 57 0
-47 -57 0
-56 -57 0
-52 55 58 0
52 -58 0
-55 -58 0
57 58 59 0
-57 -59 0
-58 -59 0
24 -26 60 0
-24 -60 0
26 -60 0
59 60 61 0
-59 -61 0
-60 -61 0
-28 61 62 0
28 -62 0
-61 -62 0
13 18 63 0
-13 -63 0
-18 -63 0
62 63 64 0
-62 -64 0
-63 -64 0
-65 -66 67 0
65 -67 0
66 -67 0
65 66 68 0
-65 -68 0
-66 -68 0
67 68 69 0
-67 -69 0
-68 -69 0
2 8 70 0
-2 -70 0
-8 -70 0
-70 4 71 0
70 -71 0
-4 -71 0
1 6 72 0
-1 -72 0
-6 -72 0
-71 -72 73 0
71 -73 0
72 -73 0
73 10 74 0
-73 -74 0
-10 -74 0
-6 -8 75 0
6 -75 0
8 -75 0
-74 75 76 0
74 -76 0
-75 -76 0
-76 77 78 0
76 -78 0
-77 -78 0
-73 10 79 0
73 -79 0
-10 -79 0
79 -77 80 0
-79 -80 0
77 -80 0
-79 77 81 0
79 -81 0
-77 -81 0
80 81 82 0
-80 -82 0
-81 -82 0
76 82 83 0
-76 -83 0
-82 -83 0
78 83 84 0
-78 -84 0
-83 -84 0
-54 -8 85 0
54 -85 0
8 -85 0
-85 10 86 0
85 -86 0
-10 -86 0
84 86 87 0
-84 -87 0
-86 -87 0
-84 -86 88 0
84 -88 0
86 -88 0
87 88 89 0
-87 -89 0
-88 -89 0
69 89 90 0
-69 -90 0
-89 -90 0
64 90 91 0
-64 -91 0
-90 -91 0
-69 -89 92 0
69 -92 0
89 -92 0
91 92 93 0
-91 -93 0
-92 -93 0
-81 94 95 0
81 -95 0
-94 -95 0
81 -94 96 0
-81 -96 0
94 -96 0
95 96 97 0
-95 -97 0
-96 -97 0
97 -83 98 0
-97 -98 0
83 -98 0
-97 83 99 0
97 -99 0
-83 -99 0
98 99 100 0
-98 -100 0
-99 -100 0
-93 100 101 0
93 -101 0
-100 -101 0
-102 103 104 0
102 -104 0
-103 -104 0
102 -103 105 0
-102 -105 0
103 -105 0
104 105 106 0
-104 -106 0
-105 -106 0
-106 -88 107 0
106 -107 0
88 -107 0
-101 107 108 0
101 -108 0
-107 -108 0
93 -100 109 0
-93 -109 0
100 -109 0
-107 -109 110 0
107 -110 0
109 -110 0
108 110 111 0
-108 -111 0
-110 -111 0
109 106 112 0
-109 -112 0
-106 -112 0
-112 88 113 0
112 -113 0
-88 -113 0
-111 113 114 0
111 -114 0
-113 -114 0
114 0
